Route #1:
Route #2: 22 15 8 18 23
Route #3: 16 7 28 9 26 27
Route #4: 14
Route #5: 20
Route #6: 17 31 21 10
Route #7: 1
Route #8: 11 2 25
Route #9: 19 13 6 4 5
Route #10: 3
Route #11: 30
Route #12: 29
Route #13: 12 24

Cost: 2059.233040458523
